69 81
17 16
45 1
2 45 26
46 2 61
3 49 25
24 48 4
67 48 4
5 23
5 23
6 38 59
39 7
36 58 8
36 9 56
18 9
56 10 33
41 10
53 11 33
11 19
12 53 32
12 42
32 13 29
13 20
51 14 29
14 22
15 28 51
15 27 44 28
81 16
61 62
76 62 63
71 80
72 73
75 76
77 76
21 20
30 22
24 23
24 66 25
26 25
31 64 26
71 27 31
71 28
30 29
31 30
35 78 31
75 32 34
34 33
35 34
35 37 70
37 36
37 38 68
39 38
40 39
54 43 42
43 72
44 74
45 52
46 47
48 49
50 61 49 65
50 52
51 75 52
55 79 52
54 53
54 55 72
57 55
57 56
57 58 69
59 58
59 60
